40
1 0 25
2 0 10
2 1 24
3 0 19
3 1 46
3 2 21
4 0 22
4 1 11
4 2 26
4 3 4
5 0 25
5 1 26
5 2 39
5 3 31
5 4 37
6 0 17
6 1 17
6 2 24
6 3 38
6 4 9
6 5 24
7 0 50
7 1 41
7 2 39
7 3 16
7 4 49
7 5 9
7 6 24
8 0 38
8 1 38
8 2 12
8 3 31
8 4 37
8 5 39
8 6 25
8 7 48
9 0 2
9 1 14
9 2 22
9 3 1
9 4 40
9 5 30
9 6 48
9 7 32
9 8 28
10 0 1
10 1 43
10 2 3
10 3 21
10 4 13
10 5 29
10 6 39
10 7 31
10 8 13
10 9 1
11 0 38
11 1 31
11 2 19
11 3 23
11 4 17
11 5 29
11 6 29
11 7 33
11 8 32
11 9 37
11 10 50
12 0 32
12 1 40
12 2 1
12 3 5
12 4 45
12 5 28
12 6 5
12 7 14
12 8 50
12 9 47
12 10 25
12 11 19
13 0 32
13 1 46
13 2 30
13 3 2
13 4 39
13 5 42
13 6 30
13 7 9
13 8 31
13 9 13
13 10 37
13 11 26
13 12 1
14 0 46
14 1 27
14 2 39
14 3 1
14 4 6
14 5 27
14 6 42
14 7 31
14 8 10
14 9 3
14 10 14
14 11 33
14 12 23
14 13 46
15 0 37
15 1 29
15 2 22
15 3 48
15 4 19
15 5 31
15 6 13
15 7 2
15 8 2
15 9 26
15 10 38
15 11 36
15 12 6
15 13 31
15 14 28
16 0 46
16 1 13
16 2 22
16 3 49
16 4 47
16 5 8
16 6 32
16 7 41
16 8 8
16 9 11
16 10 2
16 11 18
16 12 43
16 13 1
16 14 23
16 15 38
17 0 2
17 1 29
17 2 50
17 3 14
17 4 28
17 5 42
17 6 22
17 7 21
17 8 21
17 9 14
17 10 41
17 11 12
17 12 20
17 13 1
17 14 5
17 15 32
17 16 12
18 0 11
18 1 40
18 2 33
18 3 3
18 4 26
18 5 47
18 6 44
18 7 40
18 8 34
18 9 24
18 10 5
18 11 40
18 12 49
18 13 11
18 14 29
18 15 33
18 16 41
18 17 6
19 0 17
19 1 20
19 2 24
19 3 45
19 4 25
19 5 10
19 6 11
19 7 44
19 8 46
19 9 13
19 10 7
19 11 19
19 12 44
19 13 41
19 14 17
19 15 41
19 16 13
19 17 6
19 18 17
20 0 33
20 1 27
20 2 48
20 3 48
20 4 33
20 5 26
20 6 4
20 7 43
20 8 10
20 9 37
20 10 31
20 11 34
20 12 25
20 13 48
20 14 11
20 15 23
20 16 6
20 17 1
20 18 36
20 19 18
21 0 1
21 1 50
21 2 18
21 3 29
21 4 6
21 5 37
21 6 48
21 7 26
21 8 46
21 9 42
21 10 29
21 11 22
21 12 44
21 13 36
21 14 28
21 15 38
21 16 33
21 17 32
21 18 44
21 19 6
21 20 3
22 0 23
22 1 22
22 2 12
22 3 27
22 4 27
22 5 24
22 6 7
22 7 37
22 8 24
22 9 16
22 10 49
22 11 4
22 12 48
22 13 15
22 14 4
22 15 29
22 16 18
22 17 14
22 18 18
22 19 26
22 20 40
22 21 14
23 0 31
23 1 16
23 2 35
23 3 9
23 4 17
23 5 1
23 6 3
23 7 27
23 8 32
23 9 6
23 10 48
23 11 30
23 12 1
23 13 35
23 14 13
23 15 29
23 16 34
23 17 3
23 18 7
23 19 29
23 20 38
23 21 17
23 22 10
24 0 21
24 1 28
24 2 32
24 3 12
24 4 44
24 5 38
24 6 5
24 7 36
24 8 24
24 9 17
24 10 20
24 11 42
24 12 10
24 13 10
24 14 44
24 15 31
24 16 33
24 17 18
24 18 22
24 19 11
24 20 33
24 21 34
24 22 27
24 23 32
25 0 3
25 1 37
25 2 11
25 3 28
25 4 20
25 5 20
25 6 42
25 7 33
25 8 46
25 9 43
25 10 7
25 11 46
25 12 26
25 13 30
25 14 21
25 15 41
25 16 10
25 17 15
25 18 24
25 19 7
25 20 42
25 21 35
25 22 10
25 23 2
25 24 16
26 0 44
26 1 3
26 2 25
26 3 17
26 4 35
26 5 49
26 6 16
26 7 31
26 8 3
26 9 12
26 10 19
26 11 12
26 12 16
26 13 25
26 14 25
26 15 1
26 16 16
26 17 40
26 18 31
26 19 36
26 20 17
26 21 30
26 22 37
26 23 10
26 24 12
26 25 44
27 0 48
27 1 26
27 2 37
27 3 43
27 4 29
27 5 9
27 6 13
27 7 2
27 8 5
27 9 39
27 10 1
27 11 22
27 12 31
27 13 21
27 14 9
27 15 19
27 16 42
27 17 8
27 18 17
27 19 11
27 20 38
27 21 6
27 22 27
27 23 30
27 24 43
27 25 1
27 26 38
28 0 16
28 1 9
28 2 13
28 3 22
28 4 10
28 5 32
28 6 40
28 7 20
28 8 43
28 9 37
28 10 35
28 11 25
28 12 37
28 13 49
28 14 33
28 15 32
28 16 46
28 17 12
28 18 7
28 19 6
28 20 5
28 21 27
28 22 4
28 23 12
28 24 5
28 25 1
28 26 50
28 27 46
29 0 39
29 1 8
29 2 50
29 3 29
29 4 1
29 5 24
29 6 13
29 7 25
29 8 19
29 9 10
29 10 36
29 11 33
29 12 21
29 13 41
29 14 12
29 15 16
29 16 44
29 17 20
29 18 15
29 19 19
29 20 14
29 21 43
29 22 8
29 23 47
29 24 15
29 25 4
29 26 45
29 27 28
29 28 28
30 0 2
30 1 45
30 2 20
30 3 5
30 4 37
30 5 29
30 6 4
30 7 49
30 8 19
30 9 20
30 10 47
30 11 42
30 12 47
30 13 42
30 14 47
30 15 10
30 16 35
30 17 11
30 18 40
30 19 38
30 20 30
30 21 46
30 22 22
30 23 13
30 24 46
30 25 37
30 26 25
30 27 27
30 28 32
30 29 33
31 0 4
31 1 26
31 2 22
31 3 36
31 4 3
31 5 47
31 6 2
31 7 1
31 8 41
31 9 24
31 10 30
31 11 15
31 12 40
31 13 37
31 14 7
31 15 22
31 16 45
31 17 20
31 18 20
31 19 15
31 20 48
31 21 19
31 22 24
31 23 36
31 24 6
31 25 39
31 26 6
31 27 9
31 28 1
31 29 2
31 30 38
32 0 33
32 1 33
32 2 26
32 3 15
32 4 10
32 5 42
32 6 23
32 7 26
32 8 11
32 9 12
32 10 2
32 11 27
32 12 10
32 13 22
32 14 50
32 15 36
32 16 34
32 17 47
32 18 49
32 19 38
32 20 28
32 21 26
32 22 30
32 23 9
32 24 3
32 25 22
32 26 48
32 27 10
32 28 46
32 29 41
32 30 50
32 31 45
33 0 33
33 1 38
33 2 47
33 3 45
33 4 50
33 5 7
33 6 38
33 7 10
33 8 40
33 9 18
33 10 24
33 11 47
33 12 2
33 13 2
33 14 27
33 15 42
33 16 35
33 17 50
33 18 37
33 19 7
33 20 29
33 21 25
33 22 15
33 23 39
33 24 30
33 25 42
33 26 18
33 27 27
33 28 39
33 29 47
33 30 32
33 31 5
33 32 3
34 0 7
34 1 3
34 2 16
34 3 47
34 4 24
34 5 2
34 6 21
34 7 14
34 8 20
34 9 6
34 10 24
34 11 38
34 12 20
34 13 24
34 14 32
34 15 43
34 16 5
34 17 26
34 18 50
34 19 34
34 20 42
34 21 29
34 22 2
34 23 25
34 24 37
34 25 6
34 26 41
34 27 1
34 28 39
34 29 20
34 30 35
34 31 47
34 32 26
34 33 17
35 0 5
35 1 5
35 2 9
35 3 40
35 4 21
35 5 12
35 6 24
35 7 48
35 8 24
35 9 14
35 10 24
35 11 7
35 12 39
35 13 44
35 14 5
35 15 20
35 16 32
35 17 1
35 18 9
35 19 41
35 20 43
35 21 26
35 22 16
35 23 5
35 24 33
35 25 28
35 26 41
35 27 7
35 28 47
35 29 19
35 30 14
35 31 24
35 32 45
35 33 50
35 34 2
36 0 45
36 1 1
36 2 20
36 3 11
36 4 39
36 5 29
36 6 41
36 7 6
36 8 18
36 9 13
36 10 46
36 11 12
36 12 37
36 13 38
36 14 38
36 15 18
36 16 46
36 17 7
36 18 10
36 19 5
36 20 3
36 21 18
36 22 8
36 23 7
36 24 9
36 25 33
36 26 25
36 27 50
36 28 28
36 29 11
36 30 38
36 31 47
36 32 40
36 33 16
36 34 46
36 35 24
37 0 16
37 1 16
37 2 47
37 3 33
37 4 29
37 5 46
37 6 42
37 7 46
37 8 22
37 9 12
37 10 12
37 11 9
37 12 22
37 13 14
37 14 2
37 15 31
37 16 39
37 17 21
37 18 24
37 19 13
37 20 30
37 21 45
37 22 31
37 23 14
37 24 16
37 25 45
37 26 12
37 27 24
37 28 34
37 29 12
37 30 21
37 31 43
37 32 24
37 33 45
37 34 37
37 35 31
37 36 50
38 0 8
38 1 12
38 2 14
38 3 3
38 4 33
38 5 6
38 6 2
38 7 35
38 8 48
38 9 31
38 10 5
38 11 14
38 12 16
38 13 18
38 14 33
38 15 12
38 16 30
38 17 25
38 18 10
38 19 10
38 20 48
38 21 10
38 22 38
38 23 29
38 24 15
38 25 13
38 26 29
38 27 19
38 28 36
38 29 50
38 30 18
38 31 35
38 32 30
38 33 39
38 34 42
38 35 48
38 36 4
38 37 29
39 0 29
39 1 2
39 2 36
39 3 40
39 4 2
39 5 43
39 6 6
39 7 42
39 8 24
39 9 2
39 10 12
39 11 19
39 12 8
39 13 26
39 14 7
39 15 23
39 16 45
39 17 31
39 18 13
39 19 28
39 20 46
39 21 31
39 22 7
39 23 19
39 24 37
39 25 47
39 26 39
39 27 7
39 28 12
39 29 24
39 30 29
39 31 20
39 32 17
39 33 44
39 34 32
39 35 41
39 36 49
39 37 21
39 38 4
